NAME: instance_1170
TYPE: TSP
DIMENSION: 20
EDGE_WEIGHT_TYPE: EUC_2D
NODE_COORD_SECTION
0 6.27 48.43
1 92.57 65.72
2 52.91 17.06
3 81.27 24.94
4 8.45 80.46
5 22.53 63.29
6 6.30 30.57
7 75.08 70.44
8 39.99 9.73
9 90.24 61.34
10 45.73 75.74
11 17.80 98.44
12 5.80 94.96
13 55.89 44.63
14 83.91 25.89
15 32.38 15.67
16 71.40 46.39
17 65.88 48.09
18 55.27 24.79
19 65.23 29.19
EOF
